54
75
98
20
1
84
90
47
58
57
77
18
74
50
21
25
69
65
65
81
34
46
68
73
62
87
4
35
42
64
83
7
53
63
88
36
61
8
66
28
31
92
5
99
9
44
65
22
80
43
11
33
29
97
37
65
99
98
69
46
54
36
29
68
45
89
65
33
22
54
88
86
79
52
96
17
40
89
100
85
67
45
30
32
38
36
55
99
97
65
45
65
56
85
35
63
99
45
78
89